\* Source Pyomo model name=unknown *\

min 
x25:
+3.5 x1
+9 x10
+9 x11
+9 x12
+3.5 x2
+3.5 x3
+5 x4
+5 x5
+5 x6
+7.5 x7
+7.5 x8
+7.5 x9

s.t.

c_l_x26_:
+1 x1
+1 x10
+1 x11
+1 x12
+1 x2
+1 x3
+1 x4
+1 x5
+1 x6
+1 x7
+1 x8
+1 x9
>= 10

c_l_x27_:
+1 x1
+1 x10
+1 x4
+1 x7
>= 1

c_l_x28_:
+1 x11
+1 x2
+1 x5
+1 x8
>= 1

c_l_x29_:
+1 x12
+1 x3
+1 x6
+1 x9
>= 1

c_u_x30_:
+1 x1
+1 x10
+1 x4
+1 x7
<= 6

c_u_x31_:
+1 x11
+1 x2
+1 x5
+1 x8
<= 6

c_u_x32_:
+1 x12
+1 x3
+1 x6
+1 x9
<= 6

c_u_x33_:
+0.5 x1
-0.5 x10
-0.5 x4
-0.5 x7
<= 0

c_u_x34_:
-1 x11
+0 x2
-1 x5
-1 x8
<= 0

c_u_x35_:
-1 x12
+0 x3
-1 x6
-1 x9
<= 0

c_u_x36_:
-1 x1
-1 x10
+0 x4
-1 x7
<= 0

c_u_x37_:
-1 x11
-1 x2
+0 x5
-1 x8
<= 0

c_u_x38_:
-0.80000000000000004 x12
-0.80000000000000004 x3
+0.19999999999999996 x6
-0.80000000000000004 x9
<= 0

c_u_x39_:
-1 x1
-1 x10
-1 x4
+0 x7
<= 0

c_u_x40_:
-1 x11
-1 x2
-1 x5
+0 x8
<= 0

c_u_x41_:
-0.20000000000000001 x12
-0.20000000000000001 x3
-0.20000000000000001 x6
+0.80000000000000004 x9
<= 0

c_u_x42_:
-1 x1
+0 x10
-1 x4
-1 x7
<= 0

c_u_x43_:
+0 x11
-1 x2
-1 x5
-1 x8
<= 0

c_u_x44_:
+0.5 x12
-0.5 x3
-0.5 x6
-0.5 x9
<= 0

c_l_x45_:
+1 x1
>= 0

c_l_x46_:
+1 x2
>= 0

c_u_x47_:
+0.10000000000000001 x12
-0.90000000000000002 x3
+0.10000000000000001 x6
+0.10000000000000001 x9
<= 0

c_u_x48_:
+0.14999999999999999 x1
+0.14999999999999999 x10
-0.84999999999999998 x4
+0.14999999999999999 x7
<= 0

c_u_x49_:
+0.29999999999999999 x11
+0.29999999999999999 x2
-0.69999999999999996 x5
+0.29999999999999999 x8
<= 0

c_l_x50_:
+1 x6
>= 0

c_u_x51_:
+0.10000000000000001 x1
+0.10000000000000001 x10
+0.10000000000000001 x4
-0.90000000000000002 x7
<= 0

c_u_x52_:
+0.20000000000000001 x11
+0.20000000000000001 x2
+0.20000000000000001 x5
-0.80000000000000004 x8
<= 0

c_l_x53_:
+1 x9
>= 0

c_l_x54_:
+1 x10
>= 0

c_u_x55_:
-0.69999999999999996 x11
+0.29999999999999999 x2
+0.29999999999999999 x5
+0.29999999999999999 x8
<= 0

c_l_x56_:
+1 x12
>= 0

c_u_x57_:
+2 x1
-2 x10
+1 x4
+0 x7
<= 0

c_u_x58_:
-2 x11
+2 x2
+1 x5
+0 x8
<= 0

c_u_x59_:
-2 x12
+2 x3
+1 x6
+0 x9
<= 0

c_u_x60_:
-2 x1
-2 x2
-2 x3
+ [
+1 x1 * x13
+1 x14 * x2
+1 x15 * x3
]
<= 0

c_u_x61_:
-2 x4
-2 x5
-2 x6
+ [
+1 x16 * x4
+1 x17 * x5
+1 x18 * x6
]
<= 0

c_u_x62_:
-2 x7
-2 x8
-2 x9
+ [
+1 x19 * x7
+1 x20 * x8
+1 x21 * x9
]
<= 0

c_u_x63_:
-2 x10
-2 x11
-2 x12
+ [
+1 x10 * x22
+1 x11 * x23
+1 x12 * x24
]
<= 0

c_e_ONE_VAR_CONSTANT: 
ONE_VAR_CONSTANT = 1.0

bounds
    -inf <= x1 <= +inf
    -inf <= x2 <= +inf
    -inf <= x3 <= +inf
    -inf <= x4 <= +inf
    -inf <= x5 <= +inf
    -inf <= x6 <= +inf
    -inf <= x7 <= +inf
    -inf <= x8 <= +inf
    -inf <= x9 <= +inf
    -inf <= x10 <= +inf
    -inf <= x11 <= +inf
    -inf <= x12 <= +inf
   0 <= x13 <= 1
   0 <= x14 <= 1
   0 <= x15 <= 1
   0 <= x16 <= 1
   0 <= x17 <= 1
   0 <= x18 <= 1
   0 <= x19 <= 1
   0 <= x20 <= 1
   0 <= x21 <= 1
   0 <= x22 <= 1
   0 <= x23 <= 1
   0 <= x24 <= 1
binary
  x13
  x14
  x15
  x16
  x17
  x18
  x19
  x20
  x21
  x22
  x23
  x24
end
